Cost:     852.20
Running time:     300.00

Solution: 
0     53     58     40     21     73     72     74     75     56      4      0      
0     94     95     97     42     14     44     86     38     43     15     57      2      0      
0     13     87     41     22     23     67     39     25     55     54     26      0      
0     28     12     80     68     24     29     34     78     79      3     77     76      0      
0     89      6     96     59     92     37     98    100     91     16     61     85     93     99      0      
0     27     31     88     62     11     19     49     64     63     90     32     10      0      
0     52      7     82     48     47     36     46      8     45     17     84      5     60     83     18      0      
0     69      1     50     33     81     51      9     35     71     65     66     20     30     70      0      
